(declare-fun var0 () String)
(declare-fun var1 () String)
(declare-fun var2 () String)
(declare-fun var3 () String)
(declare-fun var4 () String)
(declare-fun var5 () String)
(declare-fun var6 () String)
(declare-fun var7 () String)
(declare-fun var8 () String)
(declare-fun var9 () String)
(declare-fun var10 () String)
(declare-fun var11 () String)
(declare-fun var12 () String)
(declare-fun var13 () String)
(declare-fun var14 () String)
(declare-fun var15 () String)
(declare-fun var16 () String)
(declare-fun var17 () String)
(declare-fun var18 () String)
(declare-fun var19 () String)
(declare-fun var20 () String)
(declare-fun var21 () String)
(declare-fun var22 () String)
(declare-fun var23 () String)
(declare-fun var24 () String)
(declare-fun var25 () String)
(declare-fun var26 () String)
(declare-fun var27 () String)
(declare-fun var28 () String)
(declare-fun var29 () String)
(declare-fun var30 () String)
(declare-fun var31 () String)
(declare-fun var32 () String)
(declare-fun var33 () String)
(declare-fun var34 () String)
(declare-fun var35 () String)
(declare-fun var36 () String)
(declare-fun var37 () String)
(declare-fun var38 () String)
(declare-fun var39 () String)
(declare-fun var40 () String)
(declare-fun var41 () String)
(declare-fun var42 () String)
(declare-fun var43 () String)
(declare-fun var44 () String)
(declare-fun var45 () String)
(declare-fun var46 () String)
(declare-fun var47 () String)
(declare-fun var48 () String)
(declare-fun var49 () String)
(declare-fun var50 () String)
(declare-fun var51 () String)
(declare-fun var52 () String)
(declare-fun var53 () String)
(declare-fun var54 () String)
(declare-fun var55 () String)
(declare-fun var56 () String)
(declare-fun var57 () String)
(declare-fun var58 () String)
(declare-fun var59 () String)
(declare-fun var60 () String)
(assert (= var0 (Concat var1 var2)))
(assert (= var2 (Concat var3 var4)))
(assert (= var4 (Concat var5 var6)))
(assert (= var6 (Concat var7 var8)))
(assert (= var8 (Concat var9 var10)))
(assert (= var10 (Concat var11 var12)))
(assert (= var12 (Concat var13 var14)))
(assert (= var14 (Concat var15 var16)))
(assert (= var16 (Concat var17 var18)))
(assert (= var18 (Concat var19 var20)))
(assert (= var20 (Concat var21 var22)))
(assert (= var22 (Concat var23 var24)))
(assert (= var24 (Concat var25 var26)))
(assert (= var26 (Concat var27 var28)))
(assert (= var28 (Concat var29 var30)))
(assert (= var30 (Concat var31 var32)))
(assert (= var32 (Concat var33 var34)))
(assert (= var34 (Concat var35 var36)))
(assert (= var36 (Concat var37 var38)))
(assert (= var38 (Concat var39 var40)))
(assert (= var40 (Concat var41 var42)))
(assert (= var42 (Concat var43 var44)))
(assert (= var44 (Concat var45 var46)))
(assert (= var46 (Concat var47 var48)))
(assert (= var48 (Concat var49 var50)))
(assert (= var50 (Concat var51 var52)))
(assert (= var52 (Concat var53 var54)))
(assert (= var54 (Concat var55 var56)))
(assert (= var56 (Concat var57 var58)))
(assert (= var58 (Concat var59 var60)))
(assert (= var0 "solution"))
(assert (= "`" (CharAt var16 385)))
(assert (= "$" (CharAt var44 594)))
(assert (= "3" (CharAt var48 7)))
(assert (= "Q" (CharAt var35 157)))
(assert (= "L" (CharAt var42 50)))
(assert (= "-" (CharAt var10 155)))
(assert (= "/" (CharAt var47 348)))
(assert (= ":" (CharAt var36 468)))
(assert (= "7" (CharAt var37 155)))
(assert (= "p" (CharAt var43 717)))
(assert (= "6" (CharAt var10 775)))
(assert (= "E" (CharAt var43 120)))
(assert (= "x" (CharAt var46 846)))
(assert (= "{" (CharAt var28 107)))
(assert (= "1" (CharAt var55 549)))
(assert (= "'" (CharAt var55 788)))
(assert (= "G" (CharAt var1 861)))
(assert (= "4" (CharAt var21 435)))
(assert (= "$" (CharAt var50 549)))
(assert (= "|" (CharAt var17 179)))
(assert (= "K" (CharAt var2 722)))
(assert (= "j" (CharAt var46 131)))
(assert (= "'" (CharAt var45 467)))
(assert (= "=" (CharAt var49 44)))
(assert (= "2" (CharAt var19 554)))
(assert (= "O" (CharAt var51 485)))
(assert (= "M" (CharAt var11 742)))
(assert (= "&" (CharAt var35 98)))
(assert (= "O" (CharAt var38 663)))
(assert (= "H" (CharAt var39 660)))
(assert (= "D" (CharAt var44 976)))
(assert (= "x" (CharAt var20 86)))
(assert (= "S" (CharAt var20 123)))
(assert (= "N" (CharAt var46 329)))
(assert (= "X" (CharAt var10 705)))
(assert (= "h" (CharAt var49 888)))
(assert (= "8" (CharAt var22 321)))
(assert (= "Y" (CharAt var42 247)))
(assert (= "X" (CharAt var21 529)))
(assert (= "4" (CharAt var1 786)))
(assert (= "@" (CharAt var48 676)))
(assert (= "H" (CharAt var27 710)))
(assert (= "y" (CharAt var60 383)))
(assert (= "v" (CharAt var59 384)))
(assert (= "g" (CharAt var33 915)))
(assert (= "{" (CharAt var45 787)))
(assert (= "+" (CharAt var11 506)))
(assert (= "a" (CharAt var37 317)))
(assert (= "%" (CharAt var29 933)))
(assert (= "+" (CharAt var39 422)))
(assert (= "#" (CharAt var49 998)))
(assert (= "Q" (CharAt var13 346)))
(assert (= "d" (CharAt var16 660)))
(assert (= "K" (CharAt var51 935)))
(assert (= "y" (CharAt var44 654)))
(assert (= "n" (CharAt var47 314)))
(assert (= "L" (CharAt var35 58)))
(assert (= "T" (CharAt var53 849)))
(assert (= "j" (CharAt var39 69)))
(assert (= "{" (CharAt var6 263)))
(assert (= "V" (CharAt var24 194)))
(assert (= "t" (CharAt var56 534)))
(assert (= "." (CharAt var4 427)))
(assert (= "T" (CharAt var36 807)))
(assert (= "*" (CharAt var32 346)))
(assert (= "h" (CharAt var58 511)))
(assert (= "3" (CharAt var12 118)))
(assert (= "n" (CharAt var19 258)))
(assert (= "}" (CharAt var18 153)))
(assert (= "5" (CharAt var43 231)))
(assert (= "d" (CharAt var31 581)))
(assert (= "8" (CharAt var40 163)))
(assert (= "m" (CharAt var47 966)))
(assert (= "C" (CharAt var46 24)))
(assert (= "]" (CharAt var25 297)))
(assert (= "," (CharAt var27 527)))
(assert (= "K" (CharAt var60 533)))
(assert (= ";" (CharAt var51 156)))
(assert (= "u" (CharAt var12 427)))
(assert (= "I" (CharAt var38 762)))
(assert (= "|" (CharAt var23 510)))
(assert (= "t" (CharAt var9 236)))
(assert (= "K" (CharAt var38 910)))
(assert (= "}" (CharAt var30 2)))
(assert (= "g" (CharAt var57 205)))
(assert (= "f" (CharAt var53 813)))
(assert (= "w" (CharAt var55 42)))
(assert (= "O" (CharAt var1 648)))
(assert (= "e" (CharAt var30 388)))
(assert (= "^" (CharAt var46 113)))
(assert (= "]" (CharAt var4 32)))
(assert (= "3" (CharAt var17 966)))
(assert (= "*" (CharAt var47 823)))
(assert (= "_" (CharAt var44 261)))
(assert (= "@" (CharAt var59 39)))
(assert (= "0" (CharAt var32 960)))
(assert (= "Z" (CharAt var36 952)))
(assert (= "{" (CharAt var44 324)))
(assert (= "y" (CharAt var57 644)))
(assert (= "7" (CharAt var51 211)))
(assert (= "s" (CharAt var58 581)))
(assert (= "k" (CharAt var47 921)))
(assert (= "k" (CharAt var44 721)))
(assert (= "Q" (CharAt var46 617)))
(assert (= "}" (CharAt var14 811)))
(assert (= "!" (CharAt var51 195)))
(assert (= "`" (CharAt var22 212)))
(assert (= "U" (CharAt var26 898)))
(assert (= ":" (CharAt var54 65)))
(assert (= "." (CharAt var0 285)))
(assert (= "B" (CharAt var3 240)))
(assert (= "t" (CharAt var49 462)))
(assert (= "Q" (CharAt var13 95)))
(assert (= "j" (CharAt var35 227)))
(assert (= ":" (CharAt var56 663)))
(assert (= "V" (CharAt var11 737)))
(assert (= "&" (CharAt var50 863)))
(assert (= "W" (CharAt var55 841)))
(assert (= "2" (CharAt var15 383)))
(assert (= "P" (CharAt var16 521)))
(assert (= "H" (CharAt var51 558)))
(assert (= ">" (CharAt var13 808)))
(assert (= "M" (CharAt var6 82)))
(assert (= "." (CharAt var33 614)))
(assert (= "C" (CharAt var43 37)))
(assert (= "," (CharAt var15 98)))
(assert (= "=" (CharAt var60 101)))
(assert (= "F" (CharAt var58 730)))
(assert (= "8" (CharAt var32 199)))
(assert (= "]" (CharAt var11 534)))
(assert (= "f" (CharAt var1 338)))
(assert (= "B" (CharAt var4 586)))
(assert (= "c" (CharAt var28 79)))
(assert (= "K" (CharAt var46 267)))
(assert (= "/" (CharAt var12 798)))
(assert (= "u" (CharAt var9 641)))
(assert (= "0" (CharAt var60 63)))
(assert (= "t" (CharAt var43 509)))
(assert (= "9" (CharAt var35 1)))
(assert (= "8" (CharAt var9 727)))
(assert (= "b" (CharAt var34 138)))
(assert (= "h" (CharAt var39 461)))
(assert (= "`" (CharAt var47 70)))
(assert (= ">" (CharAt var30 817)))
(assert (= "g" (CharAt var7 542)))
(assert (= "r" (CharAt var46 486)))
(assert (= "I" (CharAt var25 475)))
(assert (= "`" (CharAt var48 870)))
(assert (= "N" (CharAt var2 176)))
(assert (= "V" (CharAt var13 663)))
(assert (= "L" (CharAt var54 360)))
(assert (= "z" (CharAt var42 218)))
(assert (= "`" (CharAt var34 915)))
(assert (= "U" (CharAt var52 337)))
(assert (= "d" (CharAt var12 132)))
(assert (= "z" (CharAt var47 649)))
(assert (= "3" (CharAt var10 654)))
(assert (= "g" (CharAt var48 105)))
(assert (= "H" (CharAt var41 146)))
(assert (= "O" (CharAt var19 99)))
(assert (= "@" (CharAt var28 421)))
(assert (= "c" (CharAt var22 306)))
(assert (= "3" (CharAt var10 610)))
(assert (= "_" (CharAt var1 723)))
(assert (= "m" (CharAt var30 683)))
(assert (= "p" (CharAt var6 16)))
(assert (= ":" (CharAt var59 207)))
(assert (= "r" (CharAt var19 947)))
(assert (= "X" (CharAt var33 643)))
(assert (= "]" (CharAt var28 460)))
(assert (= "_" (CharAt var29 460)))
(assert (= "0" (CharAt var22 56)))
(assert (= "T" (CharAt var17 574)))
(assert (= ":" (CharAt var44 945)))
(assert (= "$" (CharAt var55 412)))
(assert (= "I" (CharAt var1 584)))
(assert (= "=" (CharAt var58 150)))
(assert (= "/" (CharAt var16 238)))
(assert (= "\\" (CharAt var9 110)))
(assert (= "M" (CharAt var50 531)))
(assert (= "v" (CharAt var0 978)))
(assert (= "Z" (CharAt var58 943)))
(assert (= "t" (CharAt var11 442)))
(assert (= "Q" (CharAt var15 665)))
(assert (= "." (CharAt var24 753)))
(assert (= "c" (CharAt var7 680)))
(assert (= "N" (CharAt var58 773)))
(assert (= "Z" (CharAt var36 237)))
(assert (= "'" (CharAt var49 289)))
(assert (= "w" (CharAt var5 928)))
(assert (= "a" (CharAt var33 190)))
(assert (= "0" (CharAt var24 97)))
(assert (= "3" (CharAt var55 699)))
(assert (= "*" (CharAt var26 895)))
(assert (= "m" (CharAt var40 147)))
(assert (= "{" (CharAt var4 172)))
(assert (= "J" (CharAt var29 414)))
(assert (= "9" (CharAt var17 469)))
(assert (= "o" (CharAt var3 2)))
(assert (= "|" (CharAt var21 926)))
(assert (= "u" (CharAt var55 999)))
(assert (= "2" (CharAt var10 360)))
(assert (= "H" (CharAt var26 532)))
(assert (= "J" (CharAt var0 239)))
(assert (= "B" (CharAt var45 262)))
(assert (= "E" (CharAt var34 147)))
(assert (= "\"" (CharAt var48 668)))
(assert (= "D" (CharAt var4 640)))
(assert (= "V" (CharAt var49 97)))
(assert (= "j" (CharAt var33 748)))
(assert (= "?" (CharAt var2 921)))
(assert (= "g" (CharAt var0 895)))
(assert (= "h" (CharAt var60 325)))
(assert (= "Q" (CharAt var29 783)))
(assert (= "=" (CharAt var14 985)))
(assert (= "y" (CharAt var60 334)))
(assert (= "S" (CharAt var6 158)))
(assert (= "`" (CharAt var45 235)))
(assert (= "9" (CharAt var48 384)))
(assert (= ">" (CharAt var8 517)))
(assert (= "v" (CharAt var59 307)))
(assert (= "u" (CharAt var51 525)))
(assert (= "X" (CharAt var10 284)))
(assert (= "x" (CharAt var56 13)))
(assert (= "1" (CharAt var30 552)))
(assert (= "(" (CharAt var25 191)))
(assert (= "b" (CharAt var42 701)))
(assert (= "X" (CharAt var13 772)))
(assert (= "." (CharAt var49 784)))
(assert (= "j" (CharAt var1 11)))
(assert (= "q" (CharAt var4 760)))
(assert (= "U" (CharAt var26 239)))
(assert (= "w" (CharAt var44 231)))
(assert (= "^" (CharAt var15 564)))
(assert (= "{" (CharAt var58 325)))
(assert (= "&" (CharAt var7 813)))
(assert (= "7" (CharAt var45 374)))
(assert (= "q" (CharAt var12 731)))
(assert (= "(" (CharAt var19 441)))
(assert (= "Y" (CharAt var12 524)))
(assert (= "b" (CharAt var25 6)))
(assert (= "K" (CharAt var55 167)))
(assert (= "w" (CharAt var16 975)))
(assert (= "n" (CharAt var20 148)))
(assert (= "v" (CharAt var55 312)))
(assert (= "!" (CharAt var44 55)))
(assert (= ">" (CharAt var54 818)))
(assert (= "V" (CharAt var9 943)))
(assert (= "=" (CharAt var56 363)))
(assert (= "-" (CharAt var19 50)))
(assert (= "t" (CharAt var34 20)))
(assert (= "+" (CharAt var17 125)))
(assert (= "j" (CharAt var0 453)))
(assert (= "~" (CharAt var6 741)))
(assert (= "j" (CharAt var51 309)))
(assert (= "8" (CharAt var37 301)))
(assert (= "%" (CharAt var53 1)))
(assert (= "g" (CharAt var2 963)))
(assert (= "y" (CharAt var56 927)))
(assert (= "1" (CharAt var23 853)))
(assert (= "z" (CharAt var23 741)))
(assert (= "2" (CharAt var57 965)))
(assert (= "e" (CharAt var49 414)))
(assert (= "^" (CharAt var55 892)))
(assert (= "0" (CharAt var39 900)))
(assert (= "H" (CharAt var13 875)))
(assert (= "M" (CharAt var25 687)))
(assert (= "?" (CharAt var14 310)))
(assert (= "z" (CharAt var8 52)))
(assert (= "8" (CharAt var10 504)))
(assert (= "V" (CharAt var12 487)))
(assert (= "J" (CharAt var41 199)))
(assert (= "S" (CharAt var4 207)))
(assert (= "3" (CharAt var30 918)))
(assert (= "U" (CharAt var20 165)))
(assert (= "}" (CharAt var18 582)))
(assert (= "=" (CharAt var10 496)))
(assert (= "!" (CharAt var46 394)))
(assert (= "Q" (CharAt var37 148)))
(assert (= "^" (CharAt var59 152)))
(assert (= "7" (CharAt var54 430)))
(assert (= "+" (CharAt var11 748)))
(assert (= "'" (CharAt var37 691)))
(assert (= "v" (CharAt var45 827)))
(assert (= "8" (CharAt var1 21)))
(assert (= "]" (CharAt var38 167)))
(assert (= "S" (CharAt var47 349)))
(assert (= "$" (CharAt var56 422)))
(assert (= "&" (CharAt var47 95)))
(assert (= "S" (CharAt var24 533)))
(assert (= "U" (CharAt var49 683)))
(assert (= "$" (CharAt var35 877)))
(assert (= "L" (CharAt var52 615)))
(assert (= "[" (CharAt var57 948)))
(assert (= "s" (CharAt var41 241)))
(assert (= "L" (CharAt var25 682)))
(assert (= "6" (CharAt var32 706)))
(assert (= "@" (CharAt var22 472)))
(assert (= "8" (CharAt var8 222)))
(assert (= "i" (CharAt var58 279)))
(assert (= "-" (CharAt var47 965)))
(assert (= "Q" (CharAt var53 222)))
(assert (= "q" (CharAt var26 129)))
(assert (= "Z" (CharAt var48 959)))
(assert (= "w" (CharAt var25 568)))
(assert (= "D" (CharAt var17 151)))
(assert (= "\\" (CharAt var18 290)))
(assert (= "B" (CharAt var27 846)))
(assert (= "!" (CharAt var40 991)))
(assert (= "B" (CharAt var57 908)))
(assert (= "`" (CharAt var44 610)))
(assert (= "." (CharAt var50 650)))
(assert (= "(" (CharAt var24 45)))
(assert (= "N" (CharAt var40 714)))
(assert (= "k" (CharAt var14 803)))
(assert (= "s" (CharAt var26 2)))
(assert (= "m" (CharAt var29 656)))
(assert (= "}" (CharAt var52 469)))
(assert (= "u" (CharAt var11 853)))
(assert (= "e" (CharAt var54 252)))
(assert (= "a" (CharAt var44 24)))
(assert (= "(" (CharAt var41 428)))
(assert (= "&" (CharAt var48 949)))
(assert (= "%" (CharAt var53 581)))
(assert (= "X" (CharAt var45 134)))
(assert (= "$" (CharAt var47 700)))
(assert (= "I" (CharAt var12 367)))
(assert (= "^" (CharAt var6 210)))
(assert (= "]" (CharAt var7 313)))
(assert (= "j" (CharAt var52 542)))
(assert (= "2" (CharAt var34 339)))
(assert (= "B" (CharAt var10 671)))
(assert (= "y" (CharAt var1 326)))
(assert (= "|" (CharAt var46 398)))
(assert (= "|" (CharAt var9 818)))
(assert (= "4" (CharAt var6 139)))
(assert (= "w" (CharAt var4 573)))
(assert (= "S" (CharAt var16 474)))
(assert (= "K" (CharAt var0 864)))
(assert (= "Y" (CharAt var38 353)))
(assert (= "W" (CharAt var19 29)))
(assert (= "8" (CharAt var26 759)))
(assert (= "(" (CharAt var58 132)))
(assert (= "&" (CharAt var38 299)))
(assert (= "5" (CharAt var8 384)))
(assert (= "(" (CharAt var45 3)))
(assert (= "E" (CharAt var0 322)))
(assert (= "^" (CharAt var35 251)))
(assert (= "x" (CharAt var50 556)))
(assert (= "Q" (CharAt var19 509)))
(assert (= "M" (CharAt var60 968)))
(assert (= ";" (CharAt var53 875)))
(assert (= "e" (CharAt var9 475)))
(assert (= "4" (CharAt var42 784)))
(assert (= "I" (CharAt var39 661)))
(assert (= "D" (CharAt var56 419)))
(assert (= "z" (CharAt var38 793)))
(assert (= "n" (CharAt var35 901)))
(assert (= "|" (CharAt var6 837)))
(assert (= ")" (CharAt var26 718)))
(assert (= "$" (CharAt var22 556)))
(assert (= "c" (CharAt var32 846)))
(assert (= "W" (CharAt var52 982)))
(assert (= "*" (CharAt var29 245)))
(assert (= "g" (CharAt var8 72)))
(assert (= ")" (CharAt var11 245)))
(assert (= "N" (CharAt var18 920)))
(assert (= "9" (CharAt var50 84)))
(assert (= "?" (CharAt var6 206)))
(assert (= "E" (CharAt var0 150)))
(assert (= "h" (CharAt var60 758)))
(assert (= "{" (CharAt var44 983)))
(assert (= "S" (CharAt var50 895)))
(assert (= "Q" (CharAt var23 312)))
(assert (= "=" (CharAt var54 292)))
(assert (= "F" (CharAt var12 631)))
(assert (= "%" (CharAt var27 220)))
(assert (= "M" (CharAt var30 853)))
(assert (= "I" (CharAt var29 604)))
(assert (= "r" (CharAt var32 632)))
(assert (= "M" (CharAt var17 511)))
(assert (= "1" (CharAt var43 869)))
(assert (= "C" (CharAt var46 569)))
(assert (= "O" (CharAt var8 312)))
(assert (= "I" (CharAt var39 789)))
(assert (= "{" (CharAt var5 223)))
(assert (= "0" (CharAt var45 557)))
(assert (= "B" (CharAt var39 224)))
(assert (= "W" (CharAt var48 574)))
(assert (= "7" (CharAt var45 931)))
(assert (= "P" (CharAt var59 566)))
(assert (= "X" (CharAt var24 711)))
(assert (= "1" (CharAt var4 968)))
(assert (= "[" (CharAt var14 910)))
(assert (= ";" (CharAt var44 108)))
(assert (= "/" (CharAt var60 153)))
(assert (= "K" (CharAt var45 620)))
(assert (= "_" (CharAt var37 406)))
(assert (= "," (CharAt var28 368)))
(assert (= ">" (CharAt var51 650)))
(assert (= "V" (CharAt var29 197)))
(assert (= ")" (CharAt var37 560)))
(assert (= "l" (CharAt var20 493)))
(assert (= "." (CharAt var17 843)))
(assert (= "o" (CharAt var50 316)))
(assert (= "U" (CharAt var23 877)))
(assert (= "S" (CharAt var15 804)))
(assert (= "%" (CharAt var30 413)))
(assert (= "R" (CharAt var9 934)))
(assert (= "E" (CharAt var23 376)))
(assert (= "u" (CharAt var20 494)))
(assert (= "i" (CharAt var54 41)))
(assert (= "H" (CharAt var0 977)))
(assert (= ":" (CharAt var38 159)))
(assert (= ";" (CharAt var11 707)))
(assert (= "-" (CharAt var0 4)))
(assert (= "H" (CharAt var2 402)))
(assert (= "I" (CharAt var35 709)))
(assert (= "v" (CharAt var43 19)))
(assert (= "[" (CharAt var49 267)))
(assert (= "/" (CharAt var55 613)))
(assert (= "S" (CharAt var41 392)))
(assert (= "\"" (CharAt var60 317)))
(assert (= "L" (CharAt var17 310)))
(assert (= "}" (CharAt var38 178)))
(assert (= ">" (CharAt var38 134)))
(assert (= "D" (CharAt var18 772)))
(assert (= "U" (CharAt var51 930)))
(assert (= "t" (CharAt var36 817)))
(assert (= "e" (CharAt var26 180)))
(assert (= "." (CharAt var60 668)))
(assert (= "u" (CharAt var2 236)))
(assert (= "S" (CharAt var57 900)))
(assert (= "3" (CharAt var2 146)))
(assert (= "<" (CharAt var45 714)))
(assert (= "n" (CharAt var9 862)))
(assert (= "[" (CharAt var23 977)))
(assert (= "I" (CharAt var53 984)))
(assert (= "<" (CharAt var38 9)))
(assert (= "W" (CharAt var19 772)))
(assert (= "4" (CharAt var27 724)))
(assert (= "." (CharAt var21 895)))
(assert (= "T" (CharAt var24 895)))
(assert (= "|" (CharAt var23 278)))
(assert (= "r" (CharAt var29 405)))
(assert (= "-" (CharAt var50 860)))
(assert (= "'" (CharAt var30 391)))
(assert (= "r" (CharAt var43 18)))
(assert (= "," (CharAt var17 290)))
(assert (= ":" (CharAt var13 852)))
(assert (= "J" (CharAt var42 435)))
(assert (= "'" (CharAt var43 579)))
(assert (= "e" (CharAt var54 242)))
(assert (= "o" (CharAt var9 860)))
(assert (= "," (CharAt var11 941)))
(assert (= "d" (CharAt var21 445)))
(assert (= "2" (CharAt var43 833)))
(assert (= "g" (CharAt var57 254)))
(assert (= "0" (CharAt var22 338)))
(assert (= "." (CharAt var36 736)))
(assert (= "V" (CharAt var14 797)))
(assert (= "P" (CharAt var5 249)))
(assert (= "I" (CharAt var17 866)))
(assert (= "d" (CharAt var49 292)))
(assert (= "X" (CharAt var13 787)))
(assert (= "v" (CharAt var18 251)))
(assert (= "S" (CharAt var8 602)))
(assert (= "6" (CharAt var5 135)))
(assert (= ":" (CharAt var17 490)))
(assert (= "[" (CharAt var49 192)))
(assert (= "O" (CharAt var41 425)))
(assert (= "f" (CharAt var13 704)))
(assert (= "/" (CharAt var14 739)))
(assert (= "*" (CharAt var11 82)))
(assert (= "'" (CharAt var8 120)))
(assert (= "0" (CharAt var57 331)))
(assert (= "d" (CharAt var34 958)))
(assert (= "<" (CharAt var58 80)))
(assert (= "J" (CharAt var3 366)))
(assert (= "e" (CharAt var22 823)))
(assert (= "T" (CharAt var34 79)))
(assert (= "M" (CharAt var47 260)))
(assert (= "?" (CharAt var2 111)))
(assert (= "6" (CharAt var37 508)))
(assert (= "{" (CharAt var55 40)))
(assert (= "?" (CharAt var22 932)))
(assert (= "T" (CharAt var10 926)))
(assert (= ";" (CharAt var59 357)))
(assert (= "n" (CharAt var20 396)))
(assert (= "`" (CharAt var4 550)))
(assert (= "s" (CharAt var16 127)))
(assert (= "h" (CharAt var30 708)))
(assert (= "A" (CharAt var29 371)))
(assert (= ":" (CharAt var9 780)))
(assert (= "1" (CharAt var39 887)))
(assert (= "!" (CharAt var25 960)))
(assert (= "n" (CharAt var54 701)))
(assert (= "@" (CharAt var37 963)))
(assert (= ":" (CharAt var55 989)))
(assert (= "/" (CharAt var42 983)))
(assert (= "!" (CharAt var47 467)))
(assert (= "o" (CharAt var39 99)))
(assert (= "." (CharAt var26 261)))
(assert (= "H" (CharAt var15 228)))
(assert (= "l" (CharAt var6 527)))
(assert (= "k" (CharAt var47 151)))
(assert (= "*" (CharAt var34 948)))
(assert (= "X" (CharAt var1 879)))
(assert (= "{" (CharAt var44 979)))
(assert (= "I" (CharAt var23 23)))
(assert (= "=" (CharAt var41 196)))
(assert (= "1" (CharAt var31 737)))
(assert (= "L" (CharAt var37 403)))
(assert (= "@" (CharAt var10 591)))
(assert (= "W" (CharAt var26 824)))
(assert (= "g" (CharAt var48 728)))
(assert (= "\"" (CharAt var41 838)))
(assert (= "|" (CharAt var40 441)))
(assert (= "U" (CharAt var19 229)))
(assert (= "Y" (CharAt var27 409)))
(assert (= ":" (CharAt var17 669)))
(assert (= "@" (CharAt var3 303)))
(assert (= "e" (CharAt var45 561)))
(assert (= "I" (CharAt var30 582)))
(assert (= "N" (CharAt var43 283)))
(assert (= "x" (CharAt var28 204)))
(assert (= "e" (CharAt var52 344)))
(assert (= "!" (CharAt var51 177)))
(assert (= "w" (CharAt var59 744)))
(assert (= "S" (CharAt var31 931)))
(assert (= "y" (CharAt var28 582)))
(assert (= "\\" (CharAt var36 633)))
(assert (= "S" (CharAt var33 501)))
(assert (= "!" (CharAt var49 276)))
(assert (= "\\" (CharAt var55 291)))
(assert (= "H" (CharAt var29 776)))
(assert (= "N" (CharAt var57 222)))
(assert (= "\\" (CharAt var57 610)))
(assert (= "2" (CharAt var45 109)))
(assert (= "0" (CharAt var45 719)))
(assert (= ")" (CharAt var7 632)))
(assert (= "!" (CharAt var32 497)))
(assert (= "=" (CharAt var51 45)))
(assert (= "M" (CharAt var12 735)))
(assert (= "3" (CharAt var53 186)))
(assert (= "K" (CharAt var17 297)))
(assert (= "#" (CharAt var0 22)))
(assert (= "O" (CharAt var35 201)))
(assert (= "|" (CharAt var46 184)))
(assert (= "(" (CharAt var2 126)))
(assert (= "V" (CharAt var3 798)))
(assert (= "~" (CharAt var58 674)))
(assert (= "K" (CharAt var14 725)))
(assert (= "6" (CharAt var37 310)))
(assert (= "3" (CharAt var21 362)))
(assert (= "_" (CharAt var22 502)))
(assert (= "q" (CharAt var41 132)))
(assert (= ";" (CharAt var11 232)))
(assert (= "N" (CharAt var50 10)))
(assert (= "i" (CharAt var49 874)))
(assert (= "." (CharAt var17 201)))
(assert (= "@" (CharAt var57 189)))
(assert (= ":" (CharAt var6 753)))
(assert (= "*" (CharAt var46 458)))
(assert (= "b" (CharAt var37 546)))
(assert (= "i" (CharAt var42 560)))
(assert (= "<" (CharAt var60 142)))
(assert (= "\\" (CharAt var9 854)))
(assert (= "#" (CharAt var48 908)))
(assert (= "O" (CharAt var31 525)))
(assert (= "C" (CharAt var53 25)))
(assert (= "[" (CharAt var23 640)))
(assert (= "e" (CharAt var17 203)))
(assert (= ";" (CharAt var35 581)))
(assert (= "W" (CharAt var55 481)))
(assert (= "\"" (CharAt var12 525)))
(assert (= "U" (CharAt var3 116)))
(assert (= "i" (CharAt var53 239)))
(assert (= "V" (CharAt var0 968)))
(assert (= "]" (CharAt var17 598)))
(assert (= "<" (CharAt var55 853)))
(assert (= "K" (CharAt var5 528)))
(assert (= "z" (CharAt var56 258)))
(assert (= "p" (CharAt var22 606)))
(assert (= "y" (CharAt var31 124)))
(assert (= "!" (CharAt var1 344)))
(assert (= "T" (CharAt var44 553)))
(assert (= "*" (CharAt var9 46)))
(assert (= "F" (CharAt var34 819)))
(assert (= "2" (CharAt var54 890)))
(assert (= "%" (CharAt var2 773)))
(assert (= "V" (CharAt var7 639)))
(assert (= "l" (CharAt var60 225)))
(assert (= "B" (CharAt var4 361)))
(assert (= "&" (CharAt var1 487)))
(assert (= "|" (CharAt var60 706)))
(assert (= "R" (CharAt var46 969)))
(assert (= "h" (CharAt var11 149)))
(assert (= "," (CharAt var37 592)))
(assert (= "Y" (CharAt var25 464)))
(assert (= "|" (CharAt var26 743)))
(assert (= "j" (CharAt var60 960)))
(assert (= "E" (CharAt var45 217)))
(assert (= "q" (CharAt var22 750)))
(assert (= "W" (CharAt var43 235)))
(assert (= "O" (CharAt var20 370)))
(assert (= ")" (CharAt var56 291)))
(assert (= "`" (CharAt var30 464)))
(assert (= "2" (CharAt var1 432)))
(assert (= "U" (CharAt var24 869)))
(assert (= "j" (CharAt var40 273)))
(assert (= "/" (CharAt var0 18)))
(assert (= "a" (CharAt var58 874)))
(assert (= "_" (CharAt var15 476)))
(assert (= "9" (CharAt var48 671)))
(assert (= "k" (CharAt var16 296)))
(assert (= "d" (CharAt var38 914)))
(assert (= "_" (CharAt var40 536)))
(assert (= "W" (CharAt var20 263)))
(assert (= "M" (CharAt var54 715)))
(assert (= "1" (CharAt var15 484)))
(assert (= "A" (CharAt var38 281)))
(assert (= "0" (CharAt var8 141)))
(assert (= "d" (CharAt var60 361)))
(assert (= ";" (CharAt var59 251)))
(assert (= "A" (CharAt var12 26)))
(assert (= "L" (CharAt var12 125)))
(assert (= "," (CharAt var8 849)))
(assert (= "~" (CharAt var23 829)))
(assert (= "<" (CharAt var15 111)))
(assert (= "J" (CharAt var16 792)))
(assert (= "}" (CharAt var33 783)))
(assert (= "(" (CharAt var51 997)))
(assert (= "a" (CharAt var59 985)))
(assert (= "n" (CharAt var57 96)))
(assert (= "R" (CharAt var23 522)))
(assert (= "Y" (CharAt var54 287)))
(assert (= "t" (CharAt var38 886)))
(assert (= "8" (CharAt var53 541)))
(assert (= "4" (CharAt var55 139)))
(assert (= "V" (CharAt var11 462)))
(assert (= "V" (CharAt var19 899)))
(assert (= "M" (CharAt var45 504)))
(assert (= "+" (CharAt var11 627)))
(assert (= "H" (CharAt var23 54)))
(assert (= "Y" (CharAt var38 532)))
(assert (= "!" (CharAt var48 667)))
(assert (= "F" (CharAt var55 648)))
(assert (= "m" (CharAt var36 267)))
(assert (= "3" (CharAt var8 181)))
(assert (= "H" (CharAt var36 144)))
(assert (= "\\" (CharAt var32 109)))
(assert (= "`" (CharAt var44 382)))
(assert (= "V" (CharAt var56 811)))
(assert (= "4" (CharAt var59 940)))
(assert (= "I" (CharAt var40 182)))
(assert (= "E" (CharAt var29 391)))
(assert (= "9" (CharAt var52 578)))
(assert (= "^" (CharAt var52 105)))
(assert (= "V" (CharAt var55 216)))
(assert (= "8" (CharAt var19 0)))
(assert (= "f" (CharAt var9 267)))
(assert (= "h" (CharAt var46 309)))
(assert (= "a" (CharAt var58 583)))
(assert (= "O" (CharAt var31 915)))
(assert (= ";" (CharAt var8 928)))
(assert (= "I" (CharAt var18 646)))
(assert (= "u" (CharAt var54 590)))
(assert (= "s" (CharAt var57 242)))
(assert (= "c" (CharAt var47 388)))
(assert (= "k" (CharAt var22 20)))
(assert (= "1" (CharAt var12 86)))
(assert (= "H" (CharAt var34 678)))
(assert (= "[" (CharAt var54 259)))
(assert (= "L" (CharAt var35 4)))
(assert (= "m" (CharAt var18 280)))
(assert (= "]" (CharAt var26 968)))
(assert (= "q" (CharAt var39 495)))
(assert (= "8" (CharAt var50 698)))
(assert (= "N" (CharAt var2 375)))
(assert (= "2" (CharAt var25 598)))
(assert (= "\\" (CharAt var21 734)))
(assert (= "N" (CharAt var7 418)))
(assert (= "0" (CharAt var12 278)))
(assert (= "l" (CharAt var29 221)))
(assert (= "R" (CharAt var16 380)))
(assert (= "H" (CharAt var2 103)))
(assert (= "P" (CharAt var2 168)))
(assert (= "^" (CharAt var31 367)))
(assert (= "I" (CharAt var8 573)))
(assert (= "M" (CharAt var53 936)))
(assert (= "?" (CharAt var44 905)))
(assert (= "C" (CharAt var41 943)))
(assert (= "K" (CharAt var15 960)))
(assert (= "U" (CharAt var20 481)))
(assert (= "^" (CharAt var42 510)))
(assert (= "J" (CharAt var37 742)))
(assert (= "&" (CharAt var39 677)))
(assert (= "+" (CharAt var47 612)))
(assert (= "h" (CharAt var49 962)))
(assert (= "%" (CharAt var3 545)))
(assert (= "|" (CharAt var46 746)))
(assert (= ")" (CharAt var10 566)))
(assert (= "F" (CharAt var22 9)))
(assert (= ";" (CharAt var31 715)))
(assert (= "`" (CharAt var20 50)))
(assert (= "V" (CharAt var55 959)))
(assert (= "@" (CharAt var50 432)))
(assert (= "m" (CharAt var29 849)))
(assert (= "]" (CharAt var36 238)))
(assert (= "g" (CharAt var36 538)))
(assert (= "w" (CharAt var21 869)))
(assert (= "\"" (CharAt var34 262)))
(assert (= "b" (CharAt var16 424)))
(assert (= "1" (CharAt var1 569)))
(assert (= "%" (CharAt var1 334)))
(assert (= "8" (CharAt var10 252)))
(assert (= "_" (CharAt var19 489)))
(assert (= "n" (CharAt var18 291)))
(assert (= "v" (CharAt var33 282)))
(assert (= "p" (CharAt var23 919)))
(assert (= "Z" (CharAt var57 802)))
(assert (= "5" (CharAt var37 680)))
(assert (= "l" (CharAt var30 589)))
(assert (= "." (CharAt var56 549)))
(assert (= "%" (CharAt var21 471)))
(assert (= "\"" (CharAt var36 20)))
(assert (= "(" (CharAt var22 555)))
(assert (= "T" (CharAt var4 252)))
(assert (= "c" (CharAt var30 221)))
(assert (= "f" (CharAt var7 381)))
(assert (= "'" (CharAt var0 41)))
(assert (= ";" (CharAt var38 155)))
(assert (= "a" (CharAt var58 68)))
(assert (= "," (CharAt var41 950)))
(assert (= "*" (CharAt var43 526)))
(assert (= ":" (CharAt var11 960)))
(assert (= "H" (CharAt var3 248)))
(assert (= "`" (CharAt var41 312)))
(assert (= "n" (CharAt var53 60)))
(assert (= "[" (CharAt var32 320)))
(assert (= "8" (CharAt var44 953)))
(assert (= "o" (CharAt var31 637)))
(assert (= "," (CharAt var50 366)))
(assert (= "j" (CharAt var11 546)))
(assert (= "I" (CharAt var10 140)))
(assert (= "O" (CharAt var32 251)))
(assert (= "4" (CharAt var9 811)))
(assert (= "_" (CharAt var7 844)))
(assert (= "2" (CharAt var52 620)))
(assert (= "N" (CharAt var12 762)))
(assert (= "," (CharAt var37 47)))
(assert (= "L" (CharAt var56 178)))
(assert (= "'" (CharAt var20 168)))
(assert (= "$" (CharAt var52 2)))
(assert (= "A" (CharAt var24 925)))
(assert (= "V" (CharAt var34 28)))
(assert (= "~" (CharAt var3 400)))
(assert (= "u" (CharAt var37 393)))
(assert (= "/" (CharAt var28 404)))
(assert (= "f" (CharAt var53 948)))
(assert (= "A" (CharAt var23 320)))
(assert (= "Y" (CharAt var21 900)))
(assert (= ">" (CharAt var42 787)))
(assert (= "I" (CharAt var1 246)))
(assert (= ">" (CharAt var23 774)))
(assert (= "1" (CharAt var15 499)))
(assert (= "]" (CharAt var15 195)))
(assert (= "N" (CharAt var45 816)))
(assert (= "O" (CharAt var34 801)))
(assert (= "[" (CharAt var49 406)))
(assert (= "5" (CharAt var42 665)))
(assert (= "1" (CharAt var49 138)))
(assert (= "$" (CharAt var18 450)))
(assert (= "V" (CharAt var18 881)))
(assert (= "2" (CharAt var14 636)))
(assert (= "j" (CharAt var33 560)))
(assert (= "d" (CharAt var25 976)))
(assert (= "x" (CharAt var20 767)))
(assert (= "u" (CharAt var24 579)))
(assert (= "L" (CharAt var0 329)))
(assert (= "s" (CharAt var35 168)))
(assert (= "X" (CharAt var57 761)))
(assert (= "o" (CharAt var7 217)))
(assert (= "<" (CharAt var44 928)))
(assert (= "w" (CharAt var15 344)))
(assert (= "y" (CharAt var18 479)))
(assert (= "~" (CharAt var29 914)))
(assert (= "3" (CharAt var35 747)))
(assert (= "d" (CharAt var20 552)))
(assert (= "I" (CharAt var12 742)))
(assert (= "&" (CharAt var14 554)))
(assert (= "Z" (CharAt var3 761)))
(assert (= "L" (CharAt var56 964)))
(assert (= "e" (CharAt var10 567)))
(assert (= "A" (CharAt var50 28)))
(assert (= "@" (CharAt var51 813)))
(assert (= "V" (CharAt var34 122)))
(assert (= "(" (CharAt var52 584)))
(assert (= "g" (CharAt var52 130)))
(assert (= ">" (CharAt var15 623)))
(assert (= "z" (CharAt var30 179)))
(assert (= "q" (CharAt var5 846)))
(assert (= "R" (CharAt var13 686)))
(assert (= "@" (CharAt var60 184)))
(assert (= "8" (CharAt var11 145)))
(assert (= "c" (CharAt var31 394)))
(assert (= "2" (CharAt var46 585)))
(assert (= "M" (CharAt var16 608)))
(assert (= "n" (CharAt var8 239)))
(assert (= "8" (CharAt var5 341)))
(assert (= "2" (CharAt var34 909)))
(assert (= "P" (CharAt var36 193)))
(assert (= "3" (CharAt var46 684)))
(assert (= "(" (CharAt var24 81)))
(assert (= "h" (CharAt var53 187)))
(assert (= ":" (CharAt var52 521)))
(assert (= "g" (CharAt var25 292)))
(assert (= "4" (CharAt var12 166)))
(assert (= "}" (CharAt var43 883)))
(assert (= "_" (CharAt var56 242)))
(assert (= "0" (CharAt var7 12)))
(assert (= "~" (CharAt var29 276)))
(assert (= "/" (CharAt var46 473)))
(assert (= "B" (CharAt var5 767)))
(assert (= "x" (CharAt var48 820)))
(assert (= "&" (CharAt var52 755)))
(assert (= "u" (CharAt var17 331)))
(assert (= "+" (CharAt var57 336)))
(assert (= "." (CharAt var12 616)))
(assert (= "(" (CharAt var32 462)))
(assert (= "R" (CharAt var25 847)))
(assert (= "E" (CharAt var40 447)))
(assert (= "A" (CharAt var24 168)))
(assert (= "E" (CharAt var36 551)))
(assert (= "+" (CharAt var44 318)))
(assert (= "F" (CharAt var39 869)))
(assert (= "]" (CharAt var45 639)))
(assert (= "H" (CharAt var5 895)))
(assert (= "J" (CharAt var17 47)))
(assert (= "p" (CharAt var51 395)))
(assert (= "&" (CharAt var53 226)))
(assert (= "}" (CharAt var54 255)))
(assert (= "C" (CharAt var54 17)))
(assert (= "H" (CharAt var27 849)))
(assert (= "4" (CharAt var28 830)))
(assert (= "Q" (CharAt var57 844)))
(assert (= "7" (CharAt var36 113)))
(assert (= "x" (CharAt var33 839)))
(assert (= "h" (CharAt var50 624)))
(assert (= "N" (CharAt var44 466)))
(assert (= "f" (CharAt var32 247)))
(assert (= "h" (CharAt var33 968)))
(assert (= "f" (CharAt var55 800)))
(assert (= "0" (CharAt var58 970)))
(assert (= "K" (CharAt var12 686)))
(assert (= "v" (CharAt var55 58)))
(assert (= "+" (CharAt var56 89)))
(assert (= "[" (CharAt var42 603)))
(assert (= "r" (CharAt var39 170)))
(assert (= "%" (CharAt var30 799)))
(assert (= "Q" (CharAt var12 924)))
(assert (= "v" (CharAt var26 135)))
(assert (= ";" (CharAt var57 513)))
(assert (= "e" (CharAt var22 589)))
(assert (= "(" (CharAt var5 688)))
(assert (= "9" (CharAt var27 826)))
(assert (= "~" (CharAt var58 266)))
(assert (= "g" (CharAt var32 767)))
(assert (= "G" (CharAt var6 127)))
(assert (= "E" (CharAt var54 315)))
(assert (= "R" (CharAt var38 74)))
(assert (= "i" (CharAt var44 529)))
(assert (= "}" (CharAt var55 508)))
(assert (= "k" (CharAt var26 134)))
(assert (= "n" (CharAt var0 253)))
(assert (= "9" (CharAt var48 188)))
(assert (= "z" (CharAt var35 162)))
(assert (= "s" (CharAt var48 92)))
(assert (= "9" (CharAt var40 89)))
(assert (= "N" (CharAt var38 902)))
(assert (= "<" (CharAt var44 813)))
(assert (= "m" (CharAt var44 600)))
(assert (= "2" (CharAt var59 858)))
(assert (= "L" (CharAt var15 856)))
(assert (= "G" (CharAt var29 242)))
(assert (= "S" (CharAt var44 757)))
(assert (= "C" (CharAt var28 981)))
(assert (= ":" (CharAt var39 168)))
(assert (= "6" (CharAt var40 915)))
(assert (= "z" (CharAt var42 36)))
(assert (= "2" (CharAt var15 908)))
(assert (= "H" (CharAt var37 261)))
(assert (= ">" (CharAt var32 59)))
(assert (= ")" (CharAt var15 410)))
(assert (= "P" (CharAt var50 76)))
(assert (= "o" (CharAt var18 978)))
(assert (= "_" (CharAt var16 696)))
(assert (= "_" (CharAt var8 313)))
(assert (= "f" (CharAt var18 977)))
(assert (= "W" (CharAt var23 215)))
(assert (= "'" (CharAt var3 113)))
(assert (= "l" (CharAt var40 337)))
(assert (= "H" (CharAt var23 632)))
(assert (= "@" (CharAt var20 915)))
(assert (= "]" (CharAt var45 929)))
(assert (= "Y" (CharAt var43 602)))
(assert (= "_" (CharAt var38 191)))
(assert (= "-" (CharAt var53 317)))
(assert (= "s" (CharAt var49 401)))
(assert (= "f" (CharAt var41 764)))
(assert (= "0" (CharAt var13 546)))
(assert (= "<" (CharAt var57 854)))
(assert (= "$" (CharAt var32 762)))
(assert (= "n" (CharAt var56 98)))
(assert (= "\"" (CharAt var40 212)))
(assert (= "r" (CharAt var48 569)))
(assert (= "q" (CharAt var9 89)))
(assert (= "[" (CharAt var10 821)))
(assert (= ")" (CharAt var50 500)))
(assert (= "A" (CharAt var32 750)))
(assert (= "*" (CharAt var53 534)))
(assert (= "k" (CharAt var20 986)))
(assert (= "z" (CharAt var46 682)))
(assert (= "l" (CharAt var12 912)))
(assert (= "^" (CharAt var57 609)))
(assert (= "\\" (CharAt var25 200)))
(assert (= "U" (CharAt var9 931)))
(assert (= "V" (CharAt var37 523)))
(assert (= "O" (CharAt var29 845)))
(assert (= "*" (CharAt var6 655)))
(assert (= "d" (CharAt var38 7)))
(assert (= "q" (CharAt var8 568)))
(assert (= "S" (CharAt var42 266)))
(assert (= "H" (CharAt var25 431)))
(assert (= "@" (CharAt var18 797)))
(assert (= "U" (CharAt var56 778)))
(assert (= "3" (CharAt var30 344)))
(assert (= "^" (CharAt var28 306)))
(assert (= "0" (CharAt var23 947)))
(assert (= "I" (CharAt var57 278)))
(assert (= "3" (CharAt var38 17)))
(assert (= "F" (CharAt var15 257)))
(assert (= "d" (CharAt var4 994)))
(assert (= "3" (CharAt var18 623)))
(assert (= "N" (CharAt var14 909)))
(assert (= "\\" (CharAt var50 846)))
(assert (= "9" (CharAt var51 984)))
(assert (= "m" (CharAt var9 468)))
(assert (= "E" (CharAt var10 77)))
(assert (= "l" (CharAt var7 452)))
(assert (= "q" (CharAt var8 823)))
(assert (= "7" (CharAt var25 623)))
(assert (= "a" (CharAt var14 597)))
(assert (= "C" (CharAt var53 833)))
(assert (= "z" (CharAt var38 253)))
(assert (= "7" (CharAt var50 352)))
(assert (= "P" (CharAt var22 967)))
(assert (= "I" (CharAt var30 89)))
(assert (= "T" (CharAt var19 934)))
(assert (= "*" (CharAt var35 368)))
(assert (= ":" (CharAt var50 467)))
(assert (= "a" (CharAt var60 833)))
(assert (= "\"" (CharAt var35 604)))
(assert (= "o" (CharAt var36 924)))
(assert (= "\"" (CharAt var51 633)))
(assert (= "b" (CharAt var19 929)))
(assert (= "[" (CharAt var38 819)))
(assert (= "r" (CharAt var25 741)))
(assert (= "U" (CharAt var42 259)))
(assert (= "x" (CharAt var6 984)))
(assert (= "c" (CharAt var38 570)))
(assert (= ">" (CharAt var31 867)))
(assert (= "\\" (CharAt var52 82)))
(assert (= "`" (CharAt var35 180)))
(assert (= "P" (CharAt var39 938)))
(assert (= "\"" (CharAt var28 788)))
(assert (= "b" (CharAt var17 646)))
(assert (= "-" (CharAt var37 178)))
(assert (= ":" (CharAt var8 901)))
(assert (= "w" (CharAt var39 131)))
(assert (= "Y" (CharAt var37 161)))
(assert (= "/" (CharAt var12 294)))
(assert (= "Z" (CharAt var19 468)))
(assert (= "e" (CharAt var7 742)))
(assert (= "t" (CharAt var50 827)))
(assert (= "," (CharAt var20 385)))
(assert (= "(" (CharAt var38 958)))
(assert (= "}" (CharAt var4 884)))
(assert (= "=" (CharAt var51 214)))
(assert (= "L" (CharAt var17 670)))
(assert (= "Y" (CharAt var31 122)))
(assert (= "k" (CharAt var55 829)))
(assert (= "V" (CharAt var38 347)))
(assert (= "-" (CharAt var23 967)))
(assert (= "v" (CharAt var58 492)))
(assert (= "N" (CharAt var12 368)))
(assert (= "l" (CharAt var13 899)))
(assert (= "H" (CharAt var16 377)))
(assert (= "N" (CharAt var29 85)))
(assert (= "g" (CharAt var17 337)))
(check-sat)